nNurses = 175;
nHours = 34;
minHours = 7;
maxHours = 13;
maxConsec = 9;
maxPresence = 21;
demand = [17, 13, 18, 16, 13, 12, 9, 12, 8, 12, 15, 17, 22, 22, 23, 28, 33, 30, 29, 33, 28, 32, 32, 27, 22, 19, 20, 25, 22, 18, 15, 10, 7, 12];
